%%MatrixMarket matrix array real general 
% Generated by Re::Solve <https://github.com/ORNL/ReSolve>
200 1
2.3340358782282031e-01
2.3404529703498336e-01
2.3393111732501029e-01
2.3384501532317689e-01
2.3416835987810686e-01
2.3456785980022779e-01
2.3639591958683756e-01
2.3823696639480760e-01
2.4021078142259417e-01
2.4244773156359958e-01
2.4496397901583211e-01
2.4738747317936791e-01
2.5126238543582530e-01
2.5473295405100599e-01
2.5833210193598294e-01
2.6274514072932204e-01
2.6795396446612546e-01
2.7304964009489135e-01
2.7966957978753437e-01
2.8688378589579122e-01
2.9497722940508053e-01
3.0383985705888916e-01
3.1280116446464529e-01
3.2207713685533285e-01
3.3311222721281752e-01
3.4438808567114415e-01
3.5638615243914978e-01
3.6940521336861171e-01
3.8362604225562397e-01
3.9808290501430121e-01
4.1387277894989766e-01
4.3015507069799519e-01
4.4806410768146143e-01
4.6574860880248126e-01
4.8474003009770095e-01
5.0430391436694488e-01
5.2440117279727461e-01
5.4510606844947218e-01
5.6663801569022831e-01
5.8918989789855525e-01
6.1168314199626361e-01
6.3496559158565458e-01
6.5772250155787171e-01
6.8103428995657056e-01
7.0551214780872851e-01
7.2880032136121287e-01
7.5273423413500617e-01
7.7678038262384497e-01
8.0032037784856347e-01
8.2299505233081194e-01
8.4497369637182207e-01
8.6687557832338846e-01
8.8839476792017669e-01
9.0919587781970279e-01
9.2913280629246797e-01
9.4839657764896612e-01
9.6665369835439530e-01
9.8432933728652960e-01
1.0007970518637503e+00
1.0155710840411949e+00
1.0284494214114337e+00
1.0395937544862233e+00
1.0496185929092234e+00
1.0592330060748689e+00
1.0663122491026298e+00
1.0721517082494441e+00
1.0760701836679769e+00
1.0786000161380394e+00
1.0791416978956596e+00
1.0782527339209103e+00
1.0757819391090846e+00
1.0716579092635290e+00
1.0650365939165509e+00
1.0569470242266441e+00
1.0477777757453370e+00
1.0366075969192718e+00
1.0243839491291442e+00
1.0105280578436178e+00
9.9493502047036542e-01
9.7876835003992502e-01
9.6118852147202349e-01
9.4155602364753899e-01
9.2167839598286905e-01
9.0078092769596918e-01
8.7965008594972749e-01
8.5831004930765620e-01
8.3625583337384846e-01
8.1431357830336537e-01
7.9152978863708157e-01
7.6935403172423755e-01
7.4724629764589656e-01
7.2573302696861774e-01
7.0471547658818823e-01
6.8440163396088183e-01
6.6397734562322419e-01
6.4521398620233594e-01
6.2700841906742522e-01
6.1097808754703919e-01
5.9600948517325403e-01
5.8282831875577346e-01
5.7236497930348573e-01
5.6301523347324756e-01
5.5555076136659076e-01
5.5060834372599488e-01
5.4721812362117717e-01
5.4672510809295793e-01
5.4802281469850500e-01
5.5258572281023954e-01
5.5961997671780361e-01
5.6930697019449372e-01
5.8145624995684919e-01
5.9634160937705938e-01
6.1330782328173827e-01
6.3354753526521057e-01
6.5605422859122964e-01
6.8130294136263037e-01
7.0862469078150114e-01
7.3784080160245602e-01
7.6948122933177299e-01
8.0267045017420546e-01
8.3876755562026228e-01
8.7698101407636686e-01
9.1628783440443995e-01
9.5750288154707919e-01
1.0003328302504610e+00
1.0440386481864565e+00
1.0892211382078172e+00
1.1347954743166389e+00
1.1808689472119538e+00
1.2280649739106047e+00
1.2753261925155286e+00
1.3223836562451639e+00
1.3689459114612432e+00
1.4152805870858738e+00
1.4605681687419592e+00
1.5050945768077093e+00
1.5480328244467063e+00
1.5903324818856792e+00
1.6299325835202938e+00
1.6672983689814389e+00
1.7029377040683507e+00
1.7368606385254739e+00
1.7687244936611024e+00
1.7979540035621453e+00
1.8238774685296633e+00
1.8468536096990484e+00
1.8665199087527327e+00
1.8830348297435311e+00
1.8962733946257904e+00
1.9058455010290627e+00
1.9113942265770409e+00
1.9135039913234615e+00
1.9122906556201669e+00
1.9074168464459496e+00
1.8984928303207496e+00
1.8851729720311996e+00
1.8691811905455364e+00
1.8485260180978667e+00
1.8238635523025002e+00
1.7962929399379490e+00
1.7647082285007007e+00
1.7300512527533509e+00
1.6916166801294055e+00
1.6497304073150438e+00
1.6047958030359379e+00
1.5571365336788749e+00
1.5069372111143156e+00
1.4537020647972401e+00
1.3990140518548335e+00
1.3415015105784078e+00
1.2825382028037462e+00
1.2216161576409681e+00
1.1599130384706231e+00
1.0967842662589802e+00
1.0326232038270218e+00
9.6794987464126436e-01
9.0347542417809157e-01
8.3809834421021501e-01
7.7339789377759638e-01
7.0987908153424450e-01
6.4719588636281400e-01
5.8549639425205802e-01
5.2524663094084012e-01
4.6591534864053935e-01
4.0917081175227527e-01
3.5431039557037047e-01
3.0154544546960815e-01
2.5177681975711169e-01
2.0565523598500024e-01
1.6166073651381382e-01
1.2139529993344983e-01
8.4642828110838814e-02
5.1568230084719620e-02
2.2488227886182412e-02
-2.4291861494537964e-03
-2.4319182993302157e-02
-4.1871311359349808e-02
-5.5370211572158302e-02
-6.4432239640751537e-02
-6.8354369658027020e-02
